100 8
931 582
551 828
277 209
351 419
713 25
281 187
866 606
185 339
716 833
591 932
708 371
818 590
935 648
846 971
190 460
795 873
258 571
766 815
617 205
785 875
815 172
218 74
677 741
239 353
823 475
697 829
832 578
349 176
568 735
203 163
679 733
259 259
841 775
247 73
796 514
410 255
771 112
609 629
714 272
288 604
861 543
296 232
744 983
555 817
412 738
290 620
586 837
738 891
227 873
623 292
706 792
752 752
726 168
532 841
904 871
801 272
576 809
204 134
383 203
188 221
751 484
662 74
339 497
486 545
666 548
894 965
854 445
925 808
645 571
910 906
951 566
657 548
215 433
251 786
300 852
251 481
751 886
187 528
180 171
342 411
278 214
536 929
259 220
527 669
777 831
230 587
489 853
810 488
262 239
836 875
376 436
810 889
277 245
239 170
761 535
812 804
288 235
179 81
269 230
794 159
